2
36
0 62 22 55 48 23 2 43 31 49 17 54 24 8 38 30 71 57 9 37 64 65 10 52 58 53 7 51 26 44 33 66 75 74 3 72
41
0 32 15 5 67 50 16 39 11 25 45 6 34 13 18 12 56 14 19 36 4 28 47 46 35 69 59 70 68 20 60 27 73 29 1 61 21 63 41 40 42
